%%% static parameters %%%
timespan = 1;
Fact = [2];
Distr1 = [5];
Distr2 = [20];
Clients_N = [1000];
Demand_W = [15];
Lt0 = [4];
Lt1 = [4];
SS_ = [0.85];
DS_D = [20];
K = [200];
MA = [500];
%%% dynamic parameters %%%
lost_ratio_sales_ret_th = 0.008538941936806582;
lost_ratio_sales_ret_w = 33;
lost_ratio_sales_dis_th = 0.0010817506727496152;
lost_ratio_sales_dis_w = 14;
lost_ratio_sales_fac_th = 0.001832159760426282;
lost_ratio_sales_fac_w = 66;
stock_customer_MA_mean_relative_th = 0.7796816343289893;
stock_customer_MA_mean_relative_w = 2;
stock_distributor_MA_mean_relative_th = 0.8220648395734467;
stock_distributor_MA_mean_relative_w = 22;
stock_retailer_MA_mean_relative_th = 0.35354714289932176;
stock_retailer_MA_mean_relative_w = 53;
stock_factory_MA_mean_relative_th = 0.30688705347647693;
stock_factory_MA_mean_relative_w = 77;
